(set-info :source |printed by MathSAT|)
(declare-fun call__PRODUCER_CONSUMMER_.ite9 () Int)
(declare-fun call__PRODUCER_CONSUMMER_.flby () Int)
(declare-fun call__PRODUCER_CONSUMMER_.ite4 () Int)
(declare-fun param_a_init () Int)
(declare-fun call__PRODUCER_CONSUMMER_.ite10 () Int)
(declare-fun call__PRODUCER_CONSUMMER_.ite5 () Int)
(declare-fun call__PRODUCER_CONSUMMER_.o1 () Int)
(declare-fun param_etat3 () Bool)
(declare-fun param_etat1 () Bool)
(declare-fun call_Sofar.flby () Bool)
(declare-fun call__PRODUCER_CONSUMMER_.ite6 () Int)
(declare-fun param_etat2 () Bool)
(declare-fun call__PRODUCER_CONSUMMER_.o2 () Int)
(declare-fun a () Int)
(declare-fun call_First.flby () Int)
(declare-fun env () Bool)
(declare-fun call__PRODUCER_CONSUMMER_.ite7 () Int)
(declare-fun _OK_ () Bool)
(declare-fun call__PRODUCER_CONSUMMER_.i () Int)
(declare-fun call__PRODUCER_CONSUMMER_.ite3 () Int)
(declare-fun call__PRODUCER_CONSUMMER_.ite2 () Int)
(declare-fun call__PRODUCER_CONSUMMER_.flby3 () Int)
(declare-fun call__PRODUCER_CONSUMMER_.a () Int)
(declare-fun call__PRODUCER_CONSUMMER_.flby2 () Int)
(declare-fun call__PRODUCER_CONSUMMER_.ite () Int)
(declare-fun call_First.First () Int)
(declare-fun call_Sofar.Sofar () Bool)
(declare-fun call__PRODUCER_CONSUMMER_.flby5 () Int)
(declare-fun o2 () Int)
(declare-fun call__PRODUCER_CONSUMMER_.flby4 () Int)
(declare-fun b () Int)
(declare-fun call__PRODUCER_CONSUMMER_.ite11 () Int)
(declare-fun i () Int)
(declare-fun flby () Bool)
(declare-fun call__PRODUCER_CONSUMMER_.ite8 () Int)
(declare-fun call__PRODUCER_CONSUMMER_.b () Int)
(declare-fun o1 () Int)
(define-fun .def_419 () Bool (= call_First.flby call_First.First))
(define-fun .def_417 () Bool (= call_Sofar.flby call_Sofar.Sofar))
(define-fun .def_415 () Bool (= call__PRODUCER_CONSUMMER_.flby5 call__PRODUCER_CONSUMMER_.o2))
(define-fun .def_413 () Bool (= call__PRODUCER_CONSUMMER_.flby4 call__PRODUCER_CONSUMMER_.o1))
(define-fun .def_411 () Bool (= call__PRODUCER_CONSUMMER_.a call__PRODUCER_CONSUMMER_.flby3))
(define-fun .def_409 () Bool (= call__PRODUCER_CONSUMMER_.flby2 call__PRODUCER_CONSUMMER_.b))
(define-fun .def_407 () Bool (= call__PRODUCER_CONSUMMER_.flby call__PRODUCER_CONSUMMER_.i))
(define-fun .def_403 () Bool (= call__PRODUCER_CONSUMMER_.ite6 call__PRODUCER_CONSUMMER_.ite4))
(define-fun .def_322 () Bool (not param_etat2))
(define-fun .def_404 () Bool (or .def_322 .def_403))
(define-fun .def_400 () Bool (= call__PRODUCER_CONSUMMER_.ite6 call__PRODUCER_CONSUMMER_.ite5))
(define-fun .def_401 () Bool (or param_etat2 .def_400))
(define-fun .def_405 () Bool (and .def_401 .def_404))
(define-fun .def_395 () Bool (= call__PRODUCER_CONSUMMER_.ite7 call__PRODUCER_CONSUMMER_.ite3))
(define-fun .def_313 () Bool (not param_etat1))
(define-fun .def_396 () Bool (or .def_313 .def_395))
(define-fun .def_392 () Bool (= call__PRODUCER_CONSUMMER_.ite7 call__PRODUCER_CONSUMMER_.ite6))
(define-fun .def_393 () Bool (or param_etat1 .def_392))
(define-fun .def_397 () Bool (and .def_393 .def_396))
(define-fun .def_385 () Bool (<= call_First.First 0))
(define-fun .def_386 () Bool (not .def_385))
(define-fun .def_383 () Bool (and flby call_Sofar.Sofar))
(define-fun .def_387 () Bool (and .def_383 .def_386))
(define-fun .def_388 () Bool (= env .def_387))
(define-fun .def_380 () Bool (= o2 call__PRODUCER_CONSUMMER_.o2))
(define-fun .def_376 () Bool (= o1 call__PRODUCER_CONSUMMER_.o1))
(define-fun .def_372 () Bool (= call__PRODUCER_CONSUMMER_.a a))
(define-fun .def_369 () Bool (= b call__PRODUCER_CONSUMMER_.b))
(define-fun .def_365 () Bool (= i call__PRODUCER_CONSUMMER_.i))
(define-fun .def_361 () Bool (<= 0 i))
(define-fun .def_359 () Bool (not env))
(define-fun .def_362 () Bool (or .def_359 .def_361))
(define-fun .def_363 () Bool (= _OK_ .def_362))
(define-fun .def_366 () Bool (and .def_363 .def_365))
(define-fun .def_370 () Bool (and .def_366 .def_369))
(define-fun .def_373 () Bool (and .def_370 .def_372))
(define-fun .def_377 () Bool (and .def_373 .def_376))
(define-fun .def_381 () Bool (and .def_377 .def_380))
(define-fun .def_389 () Bool (and .def_381 .def_388))
(define-fun .def_398 () Bool (and .def_389 .def_397))
(define-fun .def_406 () Bool (and .def_398 .def_405))
(define-fun .def_408 () Bool (and .def_406 .def_407))
(define-fun .def_410 () Bool (and .def_408 .def_409))
(define-fun .def_412 () Bool (and .def_410 .def_411))
(define-fun .def_414 () Bool (and .def_412 .def_413))
(define-fun .def_416 () Bool (and .def_414 .def_415))
(define-fun .def_418 () Bool (and .def_416 .def_417))
(define-fun .def_420 () Bool (and .def_418 .def_419))
(define-fun .def_355 () Bool (= param_a_init call_First.flby))
(define-fun .def_349 () Bool (and param_etat2 param_etat3))
(define-fun .def_350 () Bool (not .def_349))
(define-fun .def_352 () Bool (= .def_350 call_Sofar.flby))
(define-fun .def_347 () Bool (= call__PRODUCER_CONSUMMER_.flby5 0))
(define-fun .def_344 () Bool (= call__PRODUCER_CONSUMMER_.flby4 0))
(define-fun .def_341 () Bool (= param_a_init call__PRODUCER_CONSUMMER_.flby3))
(define-fun .def_337 () Bool (= call__PRODUCER_CONSUMMER_.flby2 0))
(define-fun .def_334 () Bool (= call__PRODUCER_CONSUMMER_.flby call__PRODUCER_CONSUMMER_.a))
(define-fun .def_329 () Bool (= call__PRODUCER_CONSUMMER_.ite11 call__PRODUCER_CONSUMMER_.ite10))
(define-fun .def_326 () Bool (not param_etat3))
(define-fun .def_330 () Bool (or .def_326 .def_329))
(define-fun .def_320 () Bool (= call__PRODUCER_CONSUMMER_.ite9 call__PRODUCER_CONSUMMER_.ite8))
(define-fun .def_323 () Bool (or .def_320 .def_322))
(define-fun .def_316 () Bool (= .def_313 flby))
(define-fun .def_311 () Bool (= call__PRODUCER_CONSUMMER_.ite2 call__PRODUCER_CONSUMMER_.ite))
(define-fun .def_314 () Bool (or .def_311 .def_313))
(define-fun .def_317 () Bool (and .def_314 .def_316))
(define-fun .def_324 () Bool (and .def_317 .def_323))
(define-fun .def_331 () Bool (and .def_324 .def_330))
(define-fun .def_335 () Bool (and .def_331 .def_334))
(define-fun .def_338 () Bool (and .def_335 .def_337))
(define-fun .def_342 () Bool (and .def_338 .def_341))
(define-fun .def_345 () Bool (and .def_342 .def_344))
(define-fun .def_348 () Bool (and .def_345 .def_347))
(define-fun .def_353 () Bool (and .def_348 .def_352))
(define-fun .def_356 () Bool (and .def_353 .def_355))
(define-fun .def_421 () Bool (and .def_356 .def_420))
(assert .def_421)
